Problem:    antitrust_domanda
Rows:       13
Columns:    21 (10 integer, 10 binary)
Non-zeros:  133
Status:     INTEGER OPTIMAL
Objective:  f = 90 (MINimum)

   No.   Row name        Activity     Lower bound   Upper bound
------ ------------    ------------- ------------- -------------
     1 fatturato_a[A]
                                   0            -0             = 
     2 fatturato_a[B]
                                   0            -0             = 
     3 fatturato_a[C]
                                   0            -0             = 
     4 fatturato_a[D]
                                   0            -0             = 
     5 fatturato_a[E]
                                   0            -0             = 
     6 fatturato_b[A]
                              159500        159500             = 
     7 fatturato_b[B]
                              169960        169960             = 
     8 fatturato_b[C]
                              185650        185650             = 
     9 fatturato_b[D]
                              566550        566550             = 
    10 fatturato_b[E]
                               46350         46350             = 
    11 f                          90                             
    12 dmaxdmassima1
                                   0            -0               
    13 dmassima                  180            -0               

   No. Column name       Activity     Lower bound   Upper bound
------ ------------    ------------- ------------- -------------
     1 assign[1]    *              0             0             1 
     2 assign[2]    *              1             0             1 
     3 assign[3]    *              1             0             1 
     4 assign[4]    *              1             0             1 
     5 assign[5]    *              1             0             1 
     6 assign[6]    *              0             0             1 
     7 assign[7]    *              1             0             1 
     8 assign[8]    *              0             0             1 
     9 assign[9]    *              0             0             1 
    10 assign[10]   *              0             0             1 
    11 fattA[A]                92000             0               
    12 fattA[B]                76000             0               
    13 fattA[C]                86250             0               
    14 fattA[D]               282300             0               
    15 fattA[E]                27500             0               
    16 fattB[A]                67500             0               
    17 fattB[B]                93960             0               
    18 fattB[C]                99400             0               
    19 fattB[D]               284250             0               
    20 fattB[E]                18850             0               
    21 d                          90                             

Integer feasibility conditions:

KKT.PE: max.abs.err = 0.00e+00 on row 0
        max.rel.err = 0.00e+00 on row 0
        High quality

KKT.PB: max.abs.err = 0.00e+00 on row 0
        max.rel.err = 0.00e+00 on row 0
        High quality

End of output
